
Gurobi 12.0.2 (win64) logging started Thu Jun  5 10:48:26 2025

Set parameter LogFile to value "C:\Ioana\_uni\honours\slp\algorithm\Main_files\results\others\prox_tubules\Task_003_Sample001_irr_gurobi.log"
Gurobi Optimizer version 12.0.2 build v12.0.2rc0 (win64 - Windows 11.0 (26100.2))

CPU model: Intel(R) Core(TM) Ultra 5 125H, instruction set [SSE2|AVX|AVX2]
Thread count: 14 physical cores, 18 logical processors, using up to 18 threads

Non-default parameters:
TimeLimit  2200

Optimize a model with 47658 rows, 34799 columns and 147846 nonzeros
Model fingerprint: 0xfebc0b93
Variable types: 17405 continuous, 17394 integer (17394 binary)
Coefficient statistics:
  Matrix range     [1e-04, 8e+04]
  Objective range  [1e-04, 1e+01]
  Bounds range     [1e+00, 1e+03]
  RHS range        [1e+00, 1e+00]
Presolve removed 31248 rows and 21840 columns
Presolve time: 0.32s
Presolved: 16410 rows, 12959 columns, 54596 nonzeros
Variable types: 6413 continuous, 6546 integer (6546 binary)

Root relaxation: objective 7.887517e-03, 1612 iterations, 0.09 seconds (0.15 work units)

    Nodes    |    Current Node    |     Objective Bounds      |     Work
 Expl Unexpl |  Obj  Depth IntInf | Incumbent    BestBd   Gap | It/Node Time

     0     0    0.00789    0   11          -    0.00789      -     -    0s
H    0     0                       7.0020178    0.00789   100%     -    0s
     0     0    5.00552    0   13    7.00202    5.00552  28.5%     -    0s
     0     0    5.03775    0   15    7.00202    5.03775  28.1%     -    0s
     0     0    5.03947    0   16    7.00202    5.03947  28.0%     -    1s
H    0     0                       7.0020178    6.94132  0.87%     -    1s
     0     0    6.94132    0   26    7.00202    6.94132  0.87%     -    1s
     0     0    6.97678    0   12    7.00202    6.97678  0.36%     -    1s
     0     0    6.98294    0    5    7.00202    6.98294  0.27%     -    1s
     0     0    6.98833    0    4    7.00202    6.98833  0.20%     -    1s
     0     0    6.98833    0    4    7.00202    6.98833  0.20%     -    1s
     0     0          -    0         7.00202    7.00183  0.00%     -    1s

Cutting planes:
  Gomory: 1
  Cover: 9
  Implied bound: 3
  Clique: 1
  MIR: 7
  Flow cover: 29
  Flow path: 3
  Network: 16
  Relax-and-lift: 1

Explored 1 nodes (4191 simplex iterations) in 1.46 seconds (1.63 work units)
Thread count was 18 (of 18 available processors)

Solution count 1: 7.00202 

Optimal solution found (tolerance 1.00e-04)
Best objective 7.002017787918e+00, best bound 7.001826955789e+00, gap 0.0027%
